(set-info :smt-lib-version 2.6)
(set-logic UF)
(set-info :source |Benchmarks from the paper: "Extending Sledgehammer with SMT Solvers" by Jasmin Blanchette, Sascha Bohme, and Lawrence C. Paulson, CADE 2011.  Translated to SMT2 by Andrew Reynolds and Morgan Deters.|)
(set-info :category "industrial")
(set-info :status unsat)
(declare-sort S1 0)
(declare-sort S2 0)
(declare-sort S3 0)
(declare-sort S4 0)
(declare-sort S5 0)
(declare-sort S6 0)
(declare-sort S7 0)
(declare-sort S8 0)
(declare-sort S9 0)
(declare-sort S10 0)
(declare-sort S11 0)
(declare-sort S12 0)
(declare-sort S13 0)
(declare-sort S14 0)
(declare-sort S15 0)
(declare-sort S16 0)
(declare-sort S17 0)
(declare-sort S18 0)
(declare-sort S19 0)
(declare-sort S20 0)
(declare-sort S21 0)
(declare-sort S22 0)
(declare-sort S23 0)
(declare-sort S24 0)
(declare-sort S25 0)
(declare-sort S26 0)
(declare-sort S27 0)
(declare-sort S28 0)
(declare-sort S29 0)
(declare-sort S30 0)
(declare-sort S31 0)
(declare-sort S32 0)
(declare-sort S33 0)
(declare-sort S34 0)
(declare-sort S35 0)
(declare-sort S36 0)
(declare-sort S37 0)
(declare-sort S38 0)
(declare-sort S39 0)
(declare-sort S40 0)
(declare-sort S41 0)
(declare-sort S42 0)
(declare-sort S43 0)
(declare-sort S44 0)
(declare-sort S45 0)
(declare-sort S46 0)
(declare-sort S47 0)
(declare-sort S48 0)
(declare-sort S49 0)
(declare-sort S50 0)
(declare-sort S51 0)
(declare-sort S52 0)
(declare-sort S53 0)
(declare-sort S54 0)
(declare-fun f1 () S1)
(declare-fun f2 () S1)
(declare-fun f3 (S2 S1) S1)
(declare-fun f4 () S2)
(declare-fun f5 (S3 S4) S1)
(declare-fun f6 (S5 S3) S3)
(declare-fun f7 () S5)
(declare-fun f8 (S6 S4) S5)
(declare-fun f9 () S6)
(declare-fun f10 () S3)
(declare-fun f11 (S7 S4) S3)
(declare-fun f12 () S7)
(declare-fun f13 () S7)
(declare-fun f14 (S10 S8) S1)
(declare-fun f15 (S11 S9) S10)
(declare-fun f16 (S12 S8) S11)
(declare-fun f17 () S12)
(declare-fun f18 () S11)
(declare-fun f19 () S6)
(declare-fun f20 (S13 S3) S1)
(declare-fun f21 (S14 S4) S13)
(declare-fun f22 () S14)
(declare-fun f23 () S6)
(declare-fun f24 () S6)
(declare-fun f25 () S6)
(declare-fun f26 () S12)
(declare-fun f27 (S15 S9) S11)
(declare-fun f28 (S16 S11) S15)
(declare-fun f29 () S16)
(declare-fun f30 (S17 S11) S11)
(declare-fun f31 (S18 S11) S17)
(declare-fun f32 () S18)
(declare-fun f33 (S19 S10) S11)
(declare-fun f34 (S20 S11) S19)
(declare-fun f35 () S20)
(declare-fun f36 (S21 S1) S17)
(declare-fun f37 () S21)
(declare-fun f38 (S22 S4) S7)
(declare-fun f39 (S23 S1) S22)
(declare-fun f40 () S23)
(declare-fun f41 (S26 S25) S11)
(declare-fun f42 (S27 S24) S26)
(declare-fun f43 (S28 S11) S27)
(declare-fun f44 () S28)
(declare-fun f45 (S29 S30) S8)
(declare-fun f46 (S31 S24) S29)
(declare-fun f47 (S32 S8) S31)
(declare-fun f48 () S32)
(declare-fun f49 (S25 S8) S30)
(declare-fun f50 (S33 S1) S2)
(declare-fun f51 () S33)
(declare-fun f52 () S11)
(declare-fun f53 () S11)
(declare-fun f54 () S3)
(declare-fun f55 (S34 S3) S13)
(declare-fun f56 () S34)
(declare-fun f57 () S3)
(declare-fun f58 (S35 S11) S4)
(declare-fun f59 (S36 S37) S35)
(declare-fun f60 (S38 S11) S36)
(declare-fun f61 () S38)
(declare-fun f62 () S37)
(declare-fun f63 () S11)
(declare-fun f64 () S5)
(declare-fun f65 (S39 S3) S4)
(declare-fun f66 () S39)
(declare-fun f67 () S1)
(declare-fun f68 () S37)
(declare-fun f69 (S40 S37) S37)
(declare-fun f70 (S41 S10) S40)
(declare-fun f71 () S41)
(declare-fun f72 (S42 S37) S40)
(declare-fun f73 () S42)
(declare-fun f74 () S39)
(declare-fun f75 () S20)
(declare-fun f76 (S43 S10) S10)
(declare-fun f77 (S44 S2) S43)
(declare-fun f78 () S44)
(declare-fun f79 (S45 S25) S37)
(declare-fun f80 (S46 S24) S45)
(declare-fun f81 () S46)
(declare-fun f82 () S34)
(declare-fun f83 (S47 S10) S42)
(declare-fun f84 () S47)
(declare-fun f85 (S49 S48) S5)
(declare-fun f86 () S49)
(declare-fun f87 (S50 S48) S6)
(declare-fun f88 () S50)
(declare-fun f89 (S51 S39) S1)
(declare-fun f90 (S52 S48) S51)
(declare-fun f91 () S52)
(declare-fun f92 (S53 S48) S39)
(declare-fun f93 () S53)
(declare-fun f94 (S54 S4) S4)
(declare-fun f95 (S48 S4) S54)
(assert (not (= f1 f2)))
(assert (forall ((?v0 S1)) (= (= (f3 f4 ?v0) f1) (not (= ?v0 f1)))))
(assert (forall ((?v0 S3) (?v1 S4)) (= (= (f5 (f6 f7 ?v0) ?v1) f1) (= ?v0 (f6 (f8 f9 ?v1) f10)))))
(assert (forall ((?v0 S4) (?v1 S4)) (= (= (f5 (f11 f12 ?v0) ?v1) f1) (= ?v0 ?v1))))
(assert (forall ((?v0 S4) (?v1 S4)) (= (= (f5 (f11 f13 ?v0) ?v1) f1) (= ?v1 ?v0))))
(assert (forall ((?v0 S8) (?v1 S9) (?v2 S8)) (= (= (f14 (f15 (f16 f17 ?v0) ?v1) ?v2) f1) (and (= ?v0 ?v2) (= (f14 (f15 f18 ?v1) ?v2) f1)))))
(assert (forall ((?v0 S4) (?v1 S3) (?v2 S4)) (= (= (f5 (f6 (f8 f19 ?v0) ?v1) ?v2) f1) (or (= ?v2 ?v0) (= (f20 (f21 f22 ?v2) ?v1) f1)))))
(assert (forall ((?v0 S4) (?v1 S3) (?v2 S4)) (= (= (f5 (f6 (f8 f23 ?v0) ?v1) ?v2) f1) (and (= ?v0 ?v2) (= (f5 ?v1 ?v2) f1)))))
(assert (forall ((?v0 S4) (?v1 S3) (?v2 S4)) (= (= (f5 (f6 (f8 f24 ?v0) ?v1) ?v2) f1) (and (= ?v2 ?v0) (= (f5 ?v1 ?v2) f1)))))
(assert (forall ((?v0 S4) (?v1 S3) (?v2 S4)) (= (= (f5 (f6 (f8 f25 ?v0) ?v1) ?v2) f1) (=> (not (= ?v2 ?v0)) (= (f5 ?v1 ?v2) f1)))))
(assert (forall ((?v0 S8) (?v1 S9) (?v2 S8)) (= (= (f14 (f15 (f16 f26 ?v0) ?v1) ?v2) f1) (= ?v2 ?v0))))
(assert (forall ((?v0 S11) (?v1 S9) (?v2 S9)) (= (f15 (f27 (f28 f29 ?v0) ?v1) ?v2) (f15 ?v0 ?v1))))
(assert (forall ((?v0 S11) (?v1 S11) (?v2 S9) (?v3 S8)) (= (= (f14 (f15 (f30 (f31 f32 ?v0) ?v1) ?v2) ?v3) f1) (or (= (f14 (f15 ?v0 ?v2) ?v3) f1) (= (f14 (f15 ?v1 ?v2) ?v3) f1)))))
(assert (forall ((?v0 S11) (?v1 S10) (?v2 S9) (?v3 S8)) (= (= (f14 (f15 (f33 (f34 f35 ?v0) ?v1) ?v2) ?v3) f1) (and (= (f14 (f15 ?v0 ?v2) ?v3) f1) (not (= (f14 ?v1 ?v3) f1))))))
(assert (forall ((?v0 S1) (?v1 S11) (?v2 S9) (?v3 S8)) (= (= (f14 (f15 (f30 (f36 f37 ?v0) ?v1) ?v2) ?v3) f1) (and (= (f14 (f15 ?v1 ?v2) ?v3) f1) (= ?v0 f1)))))
(assert (forall ((?v0 S1) (?v1 S4) (?v2 S4) (?v3 S4)) (let ((?v_0 (= ?v0 f1))) (= (= (f5 (f11 (f38 (f39 f40 ?v0) ?v1) ?v2) ?v3) f1) (and (=> (= ?v_0 true) (= ?v3 ?v1)) (=> (= ?v_0 false) (= ?v3 ?v2)))))))
(assert (forall ((?v0 S11) (?v1 S24) (?v2 S25) (?v3 S9) (?v4 S8)) (= (= (f14 (f15 (f41 (f42 (f43 f44 ?v0) ?v1) ?v2) ?v3) ?v4) f1) (= (f14 (f15 ?v0 ?v3) (f45 (f46 (f47 f48 ?v4) ?v1) (f49 ?v2 ?v4))) f1))))
(assert (forall ((?v0 S1) (?v1 S1)) (= (= (f3 (f50 f51 ?v0) ?v1) f1) (= ?v0 f1))))
(assert (forall ((?v0 S9) (?v1 S8)) (= (= (f14 (f15 f52 ?v0) ?v1) f1) false)))
(assert (forall ((?v0 S9) (?v1 S8)) (= (= (f14 (f15 f53 ?v0) ?v1) f1) true)))
(assert (forall ((?v0 S4)) (= (= (f5 f54 ?v0) f1) false)))
(assert (not (forall ((?v0 S9) (?v1 S8)) (=> (= (f14 (f15 f18 ?v0) ?v1) f1) (exists ((?v2 S11) (?v3 S11)) (and (= (f20 (f55 f56 f57) (f6 (f8 f9 (f58 (f59 (f60 f61 ?v2) f62) ?v3)) f10)) f1) (forall ((?v4 S8)) (=> (forall ((?v5 S9)) (=> (= (f14 (f15 ?v2 ?v5) ?v1) f1) (= (f14 (f15 ?v3 ?v5) ?v4) f1))) (= (f14 (f15 f63 ?v0) ?v4) f1)))))))))
(assert (forall ((?v0 S8)) (= (f20 (f55 f56 f57) (f6 (f8 f9 (f58 (f59 (f60 f61 (f16 f17 ?v0)) f62) f63)) f10)) f1)))
(assert (forall ((?v0 S3)) (= (f20 (f55 f56 ?v0) f10) f1)))
(assert (forall ((?v0 S3) (?v1 S11) (?v2 S37)) (= (f20 (f55 f56 ?v0) (f6 (f8 f9 (f58 (f59 (f60 f61 ?v1) ?v2) f53)) f10)) f1)))
(assert (forall ((?v0 S3) (?v1 S37) (?v2 S11)) (= (f20 (f55 f56 ?v0) (f6 (f8 f9 (f58 (f59 (f60 f61 f52) ?v1) ?v2)) f10)) f1)))
(assert (forall ((?v0 S4)) (let ((?v_0 (f6 (f8 f9 ?v0) f10))) (= (f20 (f55 f56 ?v_0) ?v_0) f1))))
(assert (forall ((?v0 S11) (?v1 S37) (?v2 S11) (?v3 S11) (?v4 S37) (?v5 S11)) (= (= (f58 (f59 (f60 f61 ?v0) ?v1) ?v2) (f58 (f59 (f60 f61 ?v3) ?v4) ?v5)) (and (= ?v0 ?v3) (and (= ?v1 ?v4) (= ?v2 ?v5))))))
(assert (forall ((?v0 S3) (?v1 S3) (?v2 S3)) (let ((?v_0 (f55 f56 ?v2))) (=> (= (f20 (f55 f56 ?v0) ?v1) f1) (=> (= (f20 ?v_0 ?v0) f1) (= (f20 ?v_0 ?v1) f1))))))
(assert (forall ((?v0 S3) (?v1 S4) (?v2 S3)) (let ((?v_0 (f55 f56 ?v0)) (?v_1 (f8 f9 ?v1))) (=> (= (f20 ?v_0 (f6 ?v_1 f10)) f1) (=> (= (f20 ?v_0 ?v2) f1) (= (f20 ?v_0 (f6 ?v_1 ?v2)) f1))))))
(assert (forall ((?v0 S3) (?v1 S4) (?v2 S3)) (let ((?v_0 (f55 f56 ?v0)) (?v_1 (f8 f9 ?v1))) (=> (= (f20 ?v_0 (f6 ?v_1 ?v2)) f1) (and (= (f20 ?v_0 (f6 ?v_1 f10)) f1) (= (f20 ?v_0 ?v2) f1))))))
(assert (forall ((?v0 S3) (?v1 S11) (?v2 S37) (?v3 S11) (?v4 S11) (?v5 S11)) (let ((?v_0 (f55 f56 ?v0))) (=> (= (f20 ?v_0 (f6 (f8 f9 (f58 (f59 (f60 f61 ?v1) ?v2) ?v3)) f10)) f1) (=> (= (f20 ?v_0 (f6 (f8 f9 (f58 (f59 (f60 f61 ?v4) ?v2) ?v5)) f10)) f1) (= (f20 ?v_0 (f6 (f8 f9 (f58 (f59 (f60 f61 (f30 (f31 f32 ?v1) ?v4)) ?v2) (f30 (f31 f32 ?v3) ?v5))) f10)) f1))))))
(assert (forall ((?v0 S1) (?v1 S3) (?v2 S11) (?v3 S37) (?v4 S11)) (let ((?v_0 (f55 f56 ?v1))) (=> (=> (= ?v0 f1) (= (f20 ?v_0 (f6 (f8 f9 (f58 (f59 (f60 f61 ?v2) ?v3) ?v4)) f10)) f1)) (= (f20 ?v_0 (f6 (f8 f9 (f58 (f59 (f60 f61 (f30 (f36 f37 ?v0) ?v2)) ?v3) ?v4)) f10)) f1)))))
(assert (forall ((?v0 S11) (?v1 S3) (?v2 S37) (?v3 S11)) (=> (forall ((?v4 S9) (?v5 S8)) (=> (= (f14 (f15 ?v0 ?v4) ?v5) f1) (= (f20 (f55 f56 ?v1) (f6 (f8 f9 (f58 (f59 (f60 f61 (f16 f26 ?v5)) ?v2) (f27 (f28 f29 ?v3) ?v4))) f10)) f1))) (= (f20 (f55 f56 ?v1) (f6 (f8 f9 (f58 (f59 (f60 f61 ?v0) ?v2) ?v3)) f10)) f1))))
(assert (forall ((?v0 S3) (?v1 S11) (?v2 S37) (?v3 S11) (?v4 S11)) (let ((?v_0 (f55 f56 ?v0)) (?v_1 (f59 (f60 f61 ?v1) ?v2))) (=> (= (f20 ?v_0 (f6 (f8 f9 (f58 ?v_1 ?v3)) f10)) f1) (=> (forall ((?v5 S9) (?v6 S8)) (=> (= (f14 (f15 ?v3 ?v5) ?v6) f1) (= (f14 (f15 ?v4 ?v5) ?v6) f1))) (= (f20 ?v_0 (f6 (f8 f9 (f58 ?v_1 ?v4)) f10)) f1))))))
(assert (forall ((?v0 S3) (?v1 S11) (?v2 S37) (?v3 S11) (?v4 S11)) (let ((?v_0 (f55 f56 ?v0))) (=> (= (f20 ?v_0 (f6 (f8 f9 (f58 (f59 (f60 f61 ?v1) ?v2) ?v3)) f10)) f1) (=> (forall ((?v5 S9) (?v6 S8)) (=> (= (f14 (f15 ?v4 ?v5) ?v6) f1) (= (f14 (f15 ?v1 ?v5) ?v6) f1))) (= (f20 ?v_0 (f6 (f8 f9 (f58 (f59 (f60 f61 ?v4) ?v2) ?v3)) f10)) f1))))))
(assert (forall ((?v0 S4) (?v1 S4) (?v2 S3)) (let ((?v_0 (f21 f22 ?v0))) (=> (= (f20 ?v_0 (f6 (f8 f9 ?v1) ?v2)) f1) (=> (=> (= ?v0 ?v1) false) (=> (=> (= (f20 ?v_0 ?v2) f1) false) false))))))
(assert (forall ((?v0 S4) (?v1 S3) (?v2 S4)) (let ((?v_0 (f21 f22 ?v0))) (=> (=> (not (= (f20 ?v_0 ?v1) f1)) (= ?v0 ?v2)) (= (f20 ?v_0 (f6 (f8 f9 ?v2) ?v1)) f1)))))
(assert (forall ((?v0 S4)) (=> (= (f20 (f21 f22 ?v0) f10) f1) false)))
(assert (forall ((?v0 S3) (?v1 S11) (?v2 S37) (?v3 S11) (?v4 S11) (?v5 S11)) (let ((?v_0 (f55 f56 ?v0))) (=> (= (f20 ?v_0 (f6 (f8 f9 (f58 (f59 (f60 f61 ?v1) ?v2) ?v3)) f10)) f1) (=> (forall ((?v6 S9) (?v7 S8)) (=> (= (f14 (f15 ?v4 ?v6) ?v7) f1) (forall ((?v8 S8)) (=> (forall ((?v9 S9)) (=> (= (f14 (f15 ?v1 ?v9) ?v7) f1) (= (f14 (f15 ?v3 ?v9) ?v8) f1))) (= (f14 (f15 ?v5 ?v6) ?v8) f1))))) (= (f20 ?v_0 (f6 (f8 f9 (f58 (f59 (f60 f61 ?v4) ?v2) ?v5)) f10)) f1))))))
(assert (forall ((?v0 S4)) (= (f6 f64 (f11 f12 ?v0)) (f6 (f8 f9 ?v0) f10))))
(assert (forall ((?v0 S4)) (= (f6 f64 (f11 f13 ?v0)) (f6 (f8 f9 ?v0) f10))))
(assert (forall ((?v0 S4) (?v1 S3)) (= (f6 f64 (f6 (f8 f23 ?v0) ?v1)) (ite (= (f5 ?v1 ?v0) f1) (f6 (f8 f9 ?v0) f10) f10))))
(assert (forall ((?v0 S4) (?v1 S3)) (= (f6 f64 (f6 (f8 f24 ?v0) ?v1)) (ite (= (f5 ?v1 ?v0) f1) (f6 (f8 f9 ?v0) f10) f10))))
(assert (forall ((?v0 S3) (?v1 S4)) (=> (= ?v0 f10) (not (= (f20 (f21 f22 ?v1) ?v0) f1)))))
(assert (forall ((?v0 S3)) (= (= (f6 f64 ?v0) f10) (forall ((?v1 S4)) (not (= (f5 ?v0 ?v1) f1))))))
(assert (forall ((?v0 S4)) (= (= (f20 (f21 f22 ?v0) f10) f1) false)))
(assert (forall ((?v0 S3)) (= (= f10 (f6 f64 ?v0)) (forall ((?v1 S4)) (not (= (f5 ?v0 ?v1) f1))))))
(assert (forall ((?v0 S3)) (= (forall ((?v1 S4)) (=> (= (f20 (f21 f22 ?v1) f10) f1) (= (f5 ?v0 ?v1) f1))) true)))
(assert (forall ((?v0 S3)) (= (exists ((?v1 S4)) (and (= (f20 (f21 f22 ?v1) f10) f1) (= (f5 ?v0 ?v1) f1))) false)))
(assert (forall ((?v0 S3)) (= (exists ((?v1 S4)) (= (f20 (f21 f22 ?v1) ?v0) f1)) (not (= ?v0 f10)))))
(assert (forall ((?v0 S3)) (= (forall ((?v1 S4)) (not (= (f20 (f21 f22 ?v1) ?v0) f1))) (= ?v0 f10))))
(assert (= f10 (f6 f64 f54)))
(assert (forall ((?v0 S4) (?v1 S3)) (=> (= (f20 (f21 f22 ?v0) ?v1) f1) (= (f6 (f8 f9 ?v0) ?v1) ?v1))))
(assert (forall ((?v0 S4) (?v1 S3) (?v2 S4)) (let ((?v_0 (f21 f22 ?v0))) (=> (= (f20 ?v_0 ?v1) f1) (= (f20 ?v_0 (f6 (f8 f9 ?v2) ?v1)) f1)))))
(assert (forall ((?v0 S4) (?v1 S3) (?v2 S3)) (let ((?v_0 (f21 f22 ?v0)) (?v_1 (f8 f9 ?v0))) (=> (not (= (f20 ?v_0 ?v1) f1)) (=> (not (= (f20 ?v_0 ?v2) f1)) (= (= (f6 ?v_1 ?v1) (f6 ?v_1 ?v2)) (= ?v1 ?v2)))))))
(assert (forall ((?v0 S4) (?v1 S3) (?v2 S4)) (= (= (f5 (f6 (f8 f9 ?v0) ?v1) ?v2) f1) (or (= ?v0 ?v2) (= (f5 ?v1 ?v2) f1)))))
(assert (forall ((?v0 S4) (?v1 S4) (?v2 S3)) (let ((?v_0 (f21 f22 ?v0))) (= (= (f20 ?v_0 (f6 (f8 f9 ?v1) ?v2)) f1) (or (= ?v0 ?v1) (= (f20 ?v_0 ?v2) f1))))))
(assert (forall ((?v0 S4) (?v1 S4) (?v2 S3)) (let ((?v_1 (f8 f9 ?v0)) (?v_0 (f8 f9 ?v1))) (= (f6 ?v_1 (f6 ?v_0 ?v2)) (f6 ?v_0 (f6 ?v_1 ?v2))))))
(assert (forall ((?v0 S4) (?v1 S3)) (let ((?v_0 (f8 f9 ?v0))) (let ((?v_1 (f6 ?v_0 ?v1))) (= (f6 ?v_0 ?v_1) ?v_1)))))
(assert (forall ((?v0 S4) (?v1 S3)) (= (f6 (f8 f9 ?v0) (f6 f64 ?v1)) (f6 f64 (f6 (f8 f25 ?v0) ?v1)))))
(assert (forall ((?v0 S4) (?v1 S3)) (= (f6 (f8 f9 ?v0) ?v1) (f6 f64 (f6 (f8 f19 ?v0) ?v1)))))
(assert (forall ((?v0 S4) (?v1 S3)) (= (f20 (f21 f22 ?v0) (f6 (f8 f9 ?v0) ?v1)) f1)))
(assert (forall ((?v0 S4) (?v1 S3)) (= (f6 (f8 f9 ?v0) ?v1) (f6 f64 (f6 (f8 f19 ?v0) ?v1)))))
(assert (forall ((?v0 S4) (?v1 S4)) (=> (= (f6 (f8 f9 ?v0) f10) (f6 (f8 f9 ?v1) f10)) (= ?v0 ?v1))))
(assert (forall ((?v0 S4) (?v1 S4)) (=> (= (f20 (f21 f22 ?v0) (f6 (f8 f9 ?v1) f10)) f1) (=> (=> (= ?v0 ?v1) false) false))))
(assert (forall ((?v0 S4) (?v1 S4) (?v2 S4) (?v3 S4)) (= (= (f6 (f8 f9 ?v0) (f6 (f8 f9 ?v1) f10)) (f6 (f8 f9 ?v2) (f6 (f8 f9 ?v3) f10))) (or (and (= ?v0 ?v2) (= ?v1 ?v3)) (and (= ?v0 ?v3) (= ?v1 ?v2))))))
(assert (forall ((?v0 S4) (?v1 S4)) (= (= (f20 (f21 f22 ?v0) (f6 (f8 f9 ?v1) f10)) f1) (= ?v0 ?v1))))
(assert (forall ((?v0 S4) (?v1 S3)) (not (= (f6 (f8 f9 ?v0) ?v1) f10))))
(assert (forall ((?v0 S4) (?v1 S3)) (not (= f10 (f6 (f8 f9 ?v0) ?v1)))))
(assert (forall ((?v0 S4)) (= (f65 f66 (f6 (f8 f9 ?v0) f10)) ?v0)))
(assert (forall ((?v0 S4)) (= (= (f5 f10 ?v0) f1) (= f67 f1))))
(assert (forall ((?v0 S4)) (= (= (f5 f10 ?v0) f1) (= f67 f1))))
(assert (forall ((?v0 S3) (?v1 S11)) (= (f20 (f55 f56 ?v0) (f6 (f8 f9 (f58 (f59 (f60 f61 ?v1) f68) ?v1)) f10)) f1)))
(assert (forall ((?v0 S3) (?v1 S11) (?v2 S10) (?v3 S37)) (= (f20 (f55 f56 ?v0) (f6 (f8 f9 (f58 (f59 (f60 f61 (f33 (f34 f35 ?v1) ?v2)) (f69 (f70 f71 ?v2) ?v3)) ?v1)) f10)) f1)))
(assert (forall ((?v0 S3) (?v1 S11) (?v2 S37) (?v3 S11) (?v4 S37) (?v5 S11)) (let ((?v_0 (f55 f56 ?v0)) (?v_1 (f60 f61 ?v1))) (=> (= (f20 ?v_0 (f6 (f8 f9 (f58 (f59 ?v_1 ?v2) ?v3)) f10)) f1) (=> (= (f20 ?v_0 (f6 (f8 f9 (f58 (f59 (f60 f61 ?v3) ?v4) ?v5)) f10)) f1) (= (f20 ?v_0 (f6 (f8 f9 (f58 (f59 ?v_1 (f69 (f72 f73 ?v2) ?v4)) ?v5)) f10)) f1))))))
(assert (forall ((?v0 S4)) (=> (forall ((?v1 S11) (?v2 S37) (?v3 S11)) (=> (= ?v0 (f58 (f59 (f60 f61 ?v1) ?v2) ?v3)) false)) false)))
(assert (forall ((?v0 S4) (?v1 S3)) (=> (= (f20 (f21 f22 ?v0) ?v1) f1) (=> (forall ((?v2 S3)) (=> (= ?v1 (f6 (f8 f9 ?v0) ?v2)) (=> (not (= (f20 (f21 f22 ?v0) ?v2) f1)) false))) false))))
(assert (forall ((?v0 S4) (?v1 S3)) (=> (= (f20 (f21 f22 ?v0) ?v1) f1) (exists ((?v2 S3)) (and (= ?v1 (f6 (f8 f9 ?v0) ?v2)) (not (= (f20 (f21 f22 ?v0) ?v2) f1)))))))
(assert (forall ((?v0 S11) (?v1 S11) (?v2 S3)) (=> (forall ((?v3 S9) (?v4 S8)) (=> (= (f14 (f15 ?v0 ?v3) ?v4) f1) (= (f14 (f15 ?v1 ?v3) ?v4) f1))) (= (f20 (f55 f56 ?v2) (f6 (f8 f9 (f58 (f59 (f60 f61 ?v0) f68) ?v1)) f10)) f1))))
(assert (forall ((?v0 S37) (?v1 S37)) (not (= (f69 (f72 f73 ?v0) ?v1) f68))))
(assert (forall ((?v0 S37) (?v1 S37)) (not (= f68 (f69 (f72 f73 ?v0) ?v1)))))
(assert (forall ((?v0 S10) (?v1 S37)) (not (= (f69 (f70 f71 ?v0) ?v1) f68))))
(assert (forall ((?v0 S10) (?v1 S37)) (not (= f68 (f69 (f70 f71 ?v0) ?v1)))))
(assert (forall ((?v0 S10) (?v1 S37) (?v2 S37) (?v3 S37)) (not (= (f69 (f70 f71 ?v0) ?v1) (f69 (f72 f73 ?v2) ?v3)))))
(assert (forall ((?v0 S37) (?v1 S37) (?v2 S10) (?v3 S37)) (not (= (f69 (f72 f73 ?v0) ?v1) (f69 (f70 f71 ?v2) ?v3)))))
(assert (forall ((?v0 S10) (?v1 S37) (?v2 S10) (?v3 S37)) (= (= (f69 (f70 f71 ?v0) ?v1) (f69 (f70 f71 ?v2) ?v3)) (and (= ?v0 ?v2) (= ?v1 ?v3)))))
(assert (forall ((?v0 S37) (?v1 S37) (?v2 S37) (?v3 S37)) (= (= (f69 (f72 f73 ?v0) ?v1) (f69 (f72 f73 ?v2) ?v3)) (and (= ?v0 ?v2) (= ?v1 ?v3)))))
(assert (forall ((?v0 S3)) (= (f65 f66 ?v0) (f65 f74 (f6 f7 ?v0)))))
(assert (forall ((?v0 S3)) (=> (forall ((?v1 S4)) (=> (= (f20 (f21 f22 ?v1) ?v0) f1) false)) (= ?v0 f10))))
(assert (forall ((?v0 S11) (?v1 S3) (?v2 S37) (?v3 S11)) (=> (forall ((?v4 S9) (?v5 S8)) (=> (= (f14 (f15 ?v0 ?v4) ?v5) f1) (exists ((?v6 S11) (?v7 S11)) (and (= (f20 (f55 f56 ?v1) (f6 (f8 f9 (f58 (f59 (f60 f61 ?v6) ?v2) ?v7)) f10)) f1) (forall ((?v8 S8)) (=> (forall ((?v9 S9)) (=> (= (f14 (f15 ?v6 ?v9) ?v5) f1) (= (f14 (f15 ?v7 ?v9) ?v8) f1))) (= (f14 (f15 ?v3 ?v4) ?v8) f1))))))) (= (f20 (f55 f56 ?v1) (f6 (f8 f9 (f58 (f59 (f60 f61 ?v0) ?v2) ?v3)) f10)) f1))))
(assert (forall ((?v0 S3) (?v1 S11) (?v2 S10) (?v3 S37)) (let ((?v_0 (f55 f56 ?v0)) (?v_1 (f34 f75 ?v1))) (=> (= (f20 ?v_0 (f6 (f8 f9 (f58 (f59 (f60 f61 (f33 ?v_1 ?v2)) ?v3) ?v1)) f10)) f1) (= (f20 ?v_0 (f6 (f8 f9 (f58 (f59 (f60 f61 ?v1) (f69 (f70 f71 ?v2) ?v3)) (f33 ?v_1 (f76 (f77 f78 f4) ?v2)))) f10)) f1)))))
(assert (forall ((?v0 S3)) (= (not (= ?v0 f10)) (exists ((?v1 S4) (?v2 S3)) (and (= ?v0 (f6 (f8 f9 ?v1) ?v2)) (not (= (f20 (f21 f22 ?v1) ?v2) f1)))))))
(assert (forall ((?v0 S4)) (= (= (f5 f10 ?v0) f1) (= (f20 (f21 f22 ?v0) f10) f1))))
(assert (forall ((?v0 S3) (?v1 S11) (?v2 S24) (?v3 S25)) (= (f20 (f55 f56 ?v0) (f6 (f8 f9 (f58 (f59 (f60 f61 (f41 (f42 (f43 f44 ?v1) ?v2) ?v3)) (f79 (f80 f81 ?v2) ?v3)) ?v1)) f10)) f1)))
(assert (forall ((?v0 S24) (?v1 S25) (?v2 S24) (?v3 S25)) (= (= (f79 (f80 f81 ?v0) ?v1) (f79 (f80 f81 ?v2) ?v3)) (and (= ?v0 ?v2) (= ?v1 ?v3)))))
(assert (forall ((?v0 S4) (?v1 S3)) (= (= (f20 (f21 f22 ?v0) ?v1) f1) (= (f5 ?v1 ?v0) f1))))
(assert (forall ((?v0 S3)) (= (f6 f64 ?v0) ?v0)))
(assert (forall ((?v0 S11) (?v1 S10) (?v2 S9) (?v3 S8)) (= (= (f14 (f15 (f33 (f34 f75 ?v0) ?v1) ?v2) ?v3) f1) (and (= (f14 (f15 ?v0 ?v2) ?v3) f1) (= (f14 ?v1 ?v3) f1)))))
(assert (forall ((?v0 S10) (?v1 S37) (?v2 S24) (?v3 S25)) (not (= (f69 (f70 f71 ?v0) ?v1) (f79 (f80 f81 ?v2) ?v3)))))
(assert (forall ((?v0 S24) (?v1 S25) (?v2 S10) (?v3 S37)) (not (= (f79 (f80 f81 ?v0) ?v1) (f69 (f70 f71 ?v2) ?v3)))))
(assert (forall ((?v0 S37) (?v1 S37) (?v2 S24) (?v3 S25)) (not (= (f69 (f72 f73 ?v0) ?v1) (f79 (f80 f81 ?v2) ?v3)))))
(assert (forall ((?v0 S24) (?v1 S25) (?v2 S37) (?v3 S37)) (not (= (f79 (f80 f81 ?v0) ?v1) (f69 (f72 f73 ?v2) ?v3)))))
(assert (forall ((?v0 S24) (?v1 S25)) (not (= (f79 (f80 f81 ?v0) ?v1) f68))))
(assert (forall ((?v0 S24) (?v1 S25)) (not (= f68 (f79 (f80 f81 ?v0) ?v1)))))
(assert (forall ((?v0 S3) (?v1 S11) (?v2 S10) (?v3 S37)) (let ((?v_0 (f55 f82 ?v0)) (?v_1 (f34 f75 ?v1))) (=> (= (f20 ?v_0 (f6 (f8 f9 (f58 (f59 (f60 f61 (f33 ?v_1 ?v2)) ?v3) ?v1)) f10)) f1) (= (f20 ?v_0 (f6 (f8 f9 (f58 (f59 (f60 f61 ?v1) (f69 (f70 f71 ?v2) ?v3)) (f33 ?v_1 (f76 (f77 f78 f4) ?v2)))) f10)) f1)))))
(assert (forall ((?v0 S3) (?v1 S11) (?v2 S10) (?v3 S37) (?v4 S11) (?v5 S37)) (let ((?v_0 (f55 f56 ?v0)) (?v_1 (f34 f75 ?v1))) (=> (= (f20 ?v_0 (f6 (f8 f9 (f58 (f59 (f60 f61 (f33 ?v_1 ?v2)) ?v3) ?v4)) f10)) f1) (=> (= (f20 ?v_0 (f6 (f8 f9 (f58 (f59 (f60 f61 (f33 ?v_1 (f76 (f77 f78 f4) ?v2))) ?v5) ?v4)) f10)) f1) (= (f20 ?v_0 (f6 (f8 f9 (f58 (f59 (f60 f61 ?v1) (f69 (f72 (f83 f84 ?v2) ?v3) ?v5)) ?v4)) f10)) f1))))))
(assert (forall ((?v0 S1) (?v1 S4) (?v2 S4)) (= (ite (= ?v0 f1) ?v1 ?v2) (f65 f74 (f11 (f38 (f39 f40 ?v0) ?v1) ?v2)))))
(assert (forall ((?v0 S4)) (= (f65 f74 (f11 f13 ?v0)) ?v0)))
(assert (forall ((?v0 S4)) (= (f65 f74 (f11 f12 ?v0)) ?v0)))
(assert (forall ((?v0 S1) (?v1 S10) (?v2 S8)) (= (= (f14 (f76 (f77 f78 (f50 f51 ?v0)) ?v1) ?v2) f1) (= ?v0 f1))))
(assert (forall ((?v0 S10) (?v1 S37) (?v2 S37) (?v3 S10) (?v4 S37) (?v5 S37)) (= (= (f69 (f72 (f83 f84 ?v0) ?v1) ?v2) (f69 (f72 (f83 f84 ?v3) ?v4) ?v5)) (and (= ?v0 ?v3) (and (= ?v1 ?v4) (= ?v2 ?v5))))))
(assert (forall ((?v0 S10) (?v1 S37) (?v2 S10) (?v3 S37) (?v4 S37)) (not (= (f69 (f70 f71 ?v0) ?v1) (f69 (f72 (f83 f84 ?v2) ?v3) ?v4)))))
(assert (forall ((?v0 S10) (?v1 S37) (?v2 S37) (?v3 S10) (?v4 S37)) (not (= (f69 (f72 (f83 f84 ?v0) ?v1) ?v2) (f69 (f70 f71 ?v3) ?v4)))))
(assert (forall ((?v0 S37) (?v1 S37) (?v2 S10) (?v3 S37) (?v4 S37)) (not (= (f69 (f72 f73 ?v0) ?v1) (f69 (f72 (f83 f84 ?v2) ?v3) ?v4)))))
(assert (forall ((?v0 S10) (?v1 S37) (?v2 S37) (?v3 S37) (?v4 S37)) (not (= (f69 (f72 (f83 f84 ?v0) ?v1) ?v2) (f69 (f72 f73 ?v3) ?v4)))))
(assert (forall ((?v0 S10) (?v1 S37) (?v2 S37) (?v3 S24) (?v4 S25)) (not (= (f69 (f72 (f83 f84 ?v0) ?v1) ?v2) (f79 (f80 f81 ?v3) ?v4)))))
(assert (forall ((?v0 S24) (?v1 S25) (?v2 S10) (?v3 S37) (?v4 S37)) (not (= (f79 (f80 f81 ?v0) ?v1) (f69 (f72 (f83 f84 ?v2) ?v3) ?v4)))))
(assert (forall ((?v0 S10) (?v1 S37) (?v2 S37)) (not (= f68 (f69 (f72 (f83 f84 ?v0) ?v1) ?v2)))))
(assert (forall ((?v0 S10) (?v1 S37) (?v2 S37)) (not (= (f69 (f72 (f83 f84 ?v0) ?v1) ?v2) f68))))
(assert (forall ((?v0 S3) (?v1 S3)) (=> (= (f20 (f55 f56 ?v0) ?v1) f1) (= (f20 (f55 f82 ?v0) ?v1) f1))))
(assert (forall ((?v0 S2) (?v1 S10) (?v2 S10) (?v3 S8)) (=> (= (f76 (f77 f78 ?v0) ?v1) ?v2) (= (= (f3 ?v0 (f14 ?v1 ?v3)) f1) (= (f14 ?v2 ?v3) f1)))))
(assert (forall ((?v0 S3) (?v1 S4)) (=> (= (f5 ?v0 ?v1) f1) (=> (forall ((?v2 S4)) (=> (= (f5 ?v0 ?v2) f1) (= ?v2 ?v1))) (= (f65 f74 ?v0) ?v1)))))
(assert (forall ((?v0 S3)) (=> (exists ((?v1 S4)) (and (= (f5 ?v0 ?v1) f1) (forall ((?v2 S4)) (=> (= (f5 ?v0 ?v2) f1) (= ?v2 ?v1))))) (= (f5 ?v0 (f65 f74 ?v0)) f1))))
(assert (forall ((?v0 S3) (?v1 S4)) (=> (exists ((?v2 S4)) (and (= (f5 ?v0 ?v2) f1) (forall ((?v3 S4)) (=> (= (f5 ?v0 ?v3) f1) (= ?v3 ?v2))))) (=> (= (f5 ?v0 ?v1) f1) (= (f65 f74 ?v0) ?v1)))))
(assert (forall ((?v0 S3) (?v1 S4)) (=> (= (f5 ?v0 ?v1) f1) (=> (forall ((?v2 S4)) (=> (= (f5 ?v0 ?v2) f1) (= ?v2 ?v1))) (= (f5 ?v0 (f65 f74 ?v0)) f1)))))
(assert (forall ((?v0 S48) (?v1 S4) (?v2 S4)) (= (= (f5 (f6 (f85 f86 ?v0) (f6 (f8 f9 ?v1) f10)) ?v2) f1) (= ?v1 ?v2))))
(assert (forall ((?v0 S48) (?v1 S4)) (=> (= (f5 (f6 (f85 f86 ?v0) f10) ?v1) f1) false)))
(assert (forall ((?v0 S48) (?v1 S3) (?v2 S4)) (=> (= (f5 (f6 (f85 f86 ?v0) ?v1) ?v2) f1) (not (= ?v1 f10)))))
(assert (forall ((?v0 S48) (?v1 S4) (?v2 S3) (?v3 S4)) (=> (= (f5 (f6 (f8 (f87 f88 ?v0) ?v1) ?v2) ?v3) f1) (=> (not (= (f20 (f21 f22 ?v1) ?v2) f1)) (= (f5 (f6 (f85 f86 ?v0) (f6 (f8 f9 ?v1) ?v2)) ?v3) f1)))))
(assert (forall ((?v0 S48) (?v1 S39) (?v2 S4)) (=> (= (f89 (f90 f91 ?v0) ?v1) f1) (= (f65 ?v1 (f6 (f8 f9 ?v2) f10)) ?v2))))
(assert (forall ((?v0 S48) (?v1 S3)) (= (f65 (f92 f93 ?v0) ?v1) (f65 f74 (f6 (f85 f86 ?v0) ?v1)))))
(assert (forall ((?v0 S48) (?v1 S4)) (= (f5 (f6 (f8 (f87 f88 ?v0) ?v1) f10) ?v1) f1)))
(assert (forall ((?v0 S48) (?v1 S4) (?v2 S4)) (=> (= (f5 (f6 (f8 (f87 f88 ?v0) ?v1) f10) ?v2) f1) (=> (=> (= ?v2 ?v1) false) false))))
(assert (forall ((?v0 S4) (?v1 S3) (?v2 S48) (?v3 S4) (?v4 S4)) (let ((?v_0 (f8 (f87 f88 ?v2) ?v3))) (=> (not (= (f20 (f21 f22 ?v0) ?v1) f1)) (=> (= (f5 (f6 ?v_0 ?v1) ?v4) f1) (= (f5 (f6 ?v_0 (f6 (f8 f9 ?v0) ?v1)) (f94 (f95 ?v2 ?v0) ?v4)) f1))))))
(assert (forall ((?v0 S39) (?v1 S48) (?v2 S4)) (=> (= ?v0 (f92 f93 ?v1)) (= (f65 ?v0 (f6 (f8 f9 ?v2) f10)) ?v2))))
(assert (forall ((?v0 S48) (?v1 S4)) (= (f65 (f92 f93 ?v0) (f6 (f8 f9 ?v1) f10)) ?v1)))
(assert (forall ((?v0 S2) (?v1 S10) (?v2 S8)) (= (= (f14 (f76 (f77 f78 ?v0) ?v1) ?v2) f1) (= (f3 ?v0 (f14 ?v1 ?v2)) f1))))
(assert (forall ((?v0 S2) (?v1 S10) (?v2 S8)) (= (= (f14 (f76 (f77 f78 ?v0) ?v1) ?v2) f1) (= (f3 ?v0 (f14 ?v1 ?v2)) f1))))
(assert (forall ((?v0 S48) (?v1 S4) (?v2 S3) (?v3 S4)) (=> (= (f5 (f6 (f85 f86 ?v0) (f6 (f8 f9 ?v1) ?v2)) ?v3) f1) (=> (forall ((?v4 S4) (?v5 S3)) (=> (= (f6 (f8 f9 ?v1) ?v2) (f6 (f8 f9 ?v4) ?v5)) (=> (= (f5 (f6 (f8 (f87 f88 ?v0) ?v4) ?v5) ?v3) f1) (=> (not (= (f20 (f21 f22 ?v4) ?v5) f1)) false)))) false))))
(assert (forall ((?v0 S48) (?v1 S3) (?v2 S4)) (= (= (f5 (f6 (f85 f86 ?v0) ?v1) ?v2) f1) (exists ((?v3 S4) (?v4 S3) (?v5 S4)) (and (= ?v1 (f6 (f8 f9 ?v3) ?v4)) (and (= ?v2 ?v5) (and (= (f5 (f6 (f8 (f87 f88 ?v0) ?v3) ?v4) ?v5) f1) (not (= (f20 (f21 f22 ?v3) ?v4) f1)))))))))
(assert (forall ((?v0 S48) (?v1 S4) (?v2 S3) (?v3 S4)) (= (= (f5 (f6 (f8 (f87 f88 ?v0) ?v1) ?v2) ?v3) f1) (or (and (= ?v2 f10) (= ?v3 ?v1)) (exists ((?v4 S4) (?v5 S3) (?v6 S4)) (and (= ?v2 (f6 (f8 f9 ?v4) ?v5)) (and (= ?v3 (f94 (f95 ?v0 ?v4) ?v6)) (and (not (= (f20 (f21 f22 ?v4) ?v5) f1)) (= (f5 (f6 (f8 (f87 f88 ?v0) ?v1) ?v5) ?v6) f1)))))))))
(check-sat)
(exit)
